GLPSOL: GLPK LP/MIP Solver, v4.57
Parameter(s) specified in the command line:
 -m shortest_paths_with_parity.mod -d data/data_2_97.dat -o outputs/output_2_97.txt
Reading model section from shortest_paths_with_parity.mod...
44 lines were read
Reading data section from data/data_2_97.dat...
data/data_2_97.dat:87: warning: final NL missing before end of file
87 lines were read
Generating obj...
Generating cons1O1...
Generating cons1O2...
Generating cons1NotOD...
